CPXPARAM_MIP_Cuts_FlowCovers#P16#0#3.578957#0.847158
CPXPARAM_MIP_Strategy_Branch#P34#0#2.466993#0.583950
CPXPARAM_MIP_Strategy_Branch#P34#1#3.135980#0.742303
CPXPARAM_MIP_Strategy_SubAlgorithm#P45#1#3.402337#0.805351
CPXPARAM_MIP_Strategy_SubAlgorithm#P45#2#4.224656#0.999998
CPXPARAM_MIP_Strategy_SubAlgorithm#P45#3#3.731822#0.883342
CPXPARAM_MIP_Strategy_SubAlgorithm#P45#4#4.224664#1.000000
CPXPARAM_MIP_Strategy_SubAlgorithm#P45#5#4.224651#0.999997
